NAME: random-61-27432
TYPE: TSP
COMMENT: size=61 seed=27432
DIMENSION: 124
EDGE_WEIGHT_TYPE: EUC_2D
NODE_COORD_SECTION
+0 624 192
-0 624 192
+1 502 622
-1 378 862
+2 538 208
-2 640 824
+3 179 788
-3 882 386
+4 994 411
-4 381 433
+5 452 175
-5 356 443
+6 756 318
-6 34 210
+7 595 675
-7 667 356
+8 431 950
-8 696 868
+9 890 765
-9 786 85
+10 672 713
-10 648 250
+11 336 369
-11 927 269
+12 248 987
-12 610 161
+13 122 781
-13 391 831
+14 706 944
-14 133 429
+15 952 232
-15 354 471
+16 977 646
-16 964 520
+17 143 175
-17 191 353
+18 120 267
-18 476 868
+19 852 221
-19 417 192
+20 604 575
-20 283 837
+21 745 197
-21 548 875
+22 33 111
-22 357 395
+23 197 264
-23 759 230
+24 624 236
-24 827 643
+25 299 259
-25 206 219
+26 432 49
-26 347 322
+27 341 450
-27 159 823
+28 29 802
-28 740 330
+29 190 476
-29 741 665
+30 408 420
-30 554 948
+31 801 439
-31 800 53
+32 178 214
-32 787 791
+33 843 634
-33 143 180
+34 164 175
-34 643 67
+35 891 416
-35 184 216
+36 934 469
-36 650 416
+37 68 792
-37 241 828
+38 361 895
-38 349 822
+39 523 665
-39 316 669
+40 830 949
-40 903 615
+41 450 710
-41 787 543
+42 935 703
-42 726 343
+43 200 313
-43 605 293
+44 773 906
-44 635 721
+45 884 415
-45 574 469
+46 579 432
-46 898 669
+47 69 535
-47 439 463
+48 430 11
-48 102 728
+49 385 773
-49 331 583
+50 108 926
-50 263 965
+51 200 488
-51 38 439
+52 469 525
-52 356 189
+53 463 74
-53 269 895
+54 701 357
-54 890 619
+55 385 529
-55 117 396
+56 554 84
-56 763 269
+57 514 217
-57 160 62
+58 721 842
-58 769 268
+59 760 435
-59 709 862
+60 653 446
-60 585 776
+61 17 970
-61 703 845
PRECEDENCE_SECTION
+0 -0
+1 -1
+2 -2
+3 -3
+4 -4
+5 -5
+6 -6
+7 -7
+8 -8
+9 -9
+10 -10
+11 -11
+12 -12
+13 -13
+14 -14
+15 -15
+16 -16
+17 -17
+18 -18
+19 -19
+20 -20
+21 -21
+22 -22
+23 -23
+24 -24
+25 -25
+26 -26
+27 -27
+28 -28
+29 -29
+30 -30
+31 -31
+32 -32
+33 -33
+34 -34
+35 -35
+36 -36
+37 -37
+38 -38
+39 -39
+40 -40
+41 -41
+42 -42
+43 -43
+44 -44
+45 -45
+46 -46
+47 -47
+48 -48
+49 -49
+50 -50
+51 -51
+52 -52
+53 -53
+54 -54
+55 -55
+56 -56
+57 -57
+58 -58
+59 -59
+60 -60
+61 -61
EOF
